32740
0 0 1 1 1 1 1 0 0 0 1 1 1 0 1 1 1 1 1 1 1 0 1 1 1 1 1 1 1 1 
18 19 2 27 2 12 15 27 22 28 4 28 10 3 28 18 3 20 22 27 18 16 5 24 10 18 27 19 29 2 19 19 4 16 27 6 20 20 24 16 18 20 6 4 20 19 3 2 19 14 24 16 24 16 20 6 11 26 18 25 29 2 18 20 3 11 5 14 28 25 18 12 19 20 23 23 20 23 20 16 10 17 26 25 29 10 6 5 27 25 28 6 25 25 2 3 11 6 17 28 28 15 25 18 4 24 4 24 22 3 19 4 27 12 12 20 28 25 17 20 26 11 17 19 26 16 2 11 26 17 28 24 25 20 23 20 3 3 28 10 12 22 11 11 25 5 24 15 27 25 24 17 23 17 20 11 2 15 3 3 3 27 10 24 5 27 5 4 3 15 5 20 19 14 26 2 24 10 29 10 5 15 2 19 12 20 28 23 17 24 2 2 6 4 25 12 25 15 10 19 
